problem_generation/data/GISP/train/er_n=67_m=1302_p=0.60_SET2_setparam=100.00_alpha=0.50_507.lp
maximize
OBJ:100x0 + 100x1 + 100x2 + 100x3 + 100x4 + 100x5 + 100x6 + 100x7 + 100x8 + 100x9 + 100x10 + 100x11 + 100x12 + 100x13 + 100x14 + 100x15 + 100x16 + 100x17 + 100x18 + 100x19 + 100x20 + 100x21 + 100x22 + 100x23 + 100x24 + 100x25 + 100x26 + 100x27 + 100x28 + 100x29 + 100x30 + 100x31 + 100x32 + 100x33 + 100x34 + 100x35 + 100x36 + 100x37 + 100x38 + 100x39 + 100x40 + 100x41 + 100x42 + 100x43 + 100x44 + 100x45 + 100x46 + 100x47 + 100x48 + 100x49 + 100x50 + 100x51 + 100x52 + 100x53 + 100x54 + 100x55 + 100x56 + 100x57 + 100x58 + 100x59 + 100x60 + 100x61 + 100x62 + 100x63 + 100x64 + 100x65 + 100x66 - y15_21 - y7_17 - y18_26 - y47_62 - y59_64 - y18_44 - y0_5 - y8_18 - y21_37 - y48_54 - y29_50 - y0_23 - y10_27 - y41_42 - y10_45 - y2_41 - y25_52 - y10_63 - y25_61 - y3_24 - y32_60 - y22_37 - y43_60 - y3_42 - y15_16 - y7_12 - y36_48 - y55_61 - y36_57 - y7_30 - y18_30 - y6_43 - y6_52 - y21_50 - y6_61 - y40_63 - y33_42 - y2_36 - y25_47 - y10_58 - y51_59 - y3_19 - y14_19 - y22_32 - y13_51 - y14_28 - y13_60 - y3_37 - y14_37 - y16_65 - y55_56 - y17_39 - y7_16 - y55_65 - y17_48 - y47_61 - y59_63 - y28_66 - y9_62 - y40_49 - y21_45 - y21_54 - y10_26 - y39_62 - y2_22 - y12_63 - y2_40 - y25_42 - y2_49 - y35_46 - y32_59 - y1_53 - y13_55 - y14_32 - y24_55 - y24_64 - y17_25 - y55_60 - y9_39 - y17_52 - y5_59 - y58_62 - y9_57 - y21_22 - y29_35 - y40_44 - y10_12 - y2_17 - y39_66 - y31_62 - y23_58 - y32_36 - y35_41 - y43_54 - y1_48 - y24_50 - y1_57 - y17_56 - y9_52 - y50_53 - y6_28 - y9_61 - y42_58 - y21_35 - y8_65 - y10_16 - y39_52 - y2_12 - y20_66 - y12_62 - y23_62 - y24_27 - y32_49 - y43_49 - y16_41 - y35_54 - y13_63 - y9_11 - y57_60 - y36_37 - y28_33 - y38_65 - y9_38 - y6_14 - y58_61 - y42_44 - y50_57 - y50_66 - y8_60 - y30_60 - y42_62 - y0_56 - y20_34 - y2_7 - y12_39 - y31_52 - y20_61 - y31_61 - y23_57 - y32_35 - y12_66 - y4_62 - y16_27 - y43_44 - y43_53 - y16_36 - y24_49 - y5_17 - y46_55 - y9_15 - y49_51 - y46_64 - y17_37 - y28_37 - y6_9 - y27_41 - y27_50 - y30_46 - y42_57 - y11_51 - y19_64 - y30_64 - y0_60 - y20_38 - y39_51 - y23_34 - y23_43 - y20_56 - y4_39 - y31_56 - y12_52 - y23_52 - y23_61 - y13_26 - y4_57 - y34_58 - y13_35 - y1_51 - y46_50 - y38_46 - y49_55 - y5_30 - y15_62 - y26_62 - y27_36 - y19_32 - y30_41 - y8_50 - y0_46 - y11_46 - y19_59 - y12_20 - y0_64 - y23_29 - y4_25 - y12_38 - y23_56 - y13_30 - y53_66 - y16_26 - y22_60 - y34_62 - y45_62 - y56_62 - y1_46 - y14_65 - y38_50 - y5_25 - y46_63 - y57_63 - y15_57 - y26_57 - y49_59 - y7_62 - y8_36 - y11_32 - y8_63 - y30_63 - y12_24 - y23_24 - y41_60 - y52_60 - y23_33 - y33_65 - y44_65 - y1_5 - y34_39 - y4_47 - y45_57 - y1_32 - y45_66 - y14_60 - y37_62 - y26_34 - y5_11 - y46_49 - y7_39 - y15_61 - y38_63 - y8_22 - y19_22 - y27_44 - y19_40 - y11_36 - y20_23 - y11_54 - y31_32 - y4_15 - y33_51 - y12_28 - y33_60 - y2_63 - y22_41 - y1_18 - y53_56 - y22_50 - y53_65 - y14_64 - y15_29 - y37_66 - y38_40 - y7_34 - y15_47 - y38_49 - y26_56 - y18_52 - y8_17 - y18_61 - y27_39 - y11_22 - y8_35 - y21_63 - y11_40 - y4_19 - y10_53 - y33_55 - y10_62 - y25_60 - y14_41 - y3_50 - y14_50 - y3_59 - y7_29 - y18_29 - y26_42 - y18_47 - y8_12 - y18_56 - y40_53 - y0_26 - y52_54 - y4_14 - y33_50 - y10_57 - y3_45 - y14_45 - y37_47 - y14_54 - y7_15 - y3_63 - y55_64 - y36_60 - y26_37 - y29_39 - y48_52 - y29_48 - y19_25 - y29_57 - y6_64 - y41_49 - y33_45 - y44_63 - y2_57 - y14_22 - y25_59 - y22_44 - y37_42 - y14_49 - y36_46 - y15_23 - y17_51 - y8_11 - y6_41 - y48_56 - y29_52 - y48_65 - y29_61 - y40_61 - y21_66 - y10_29 - y2_25 - y25_27 - y25_36 - y44_49 - y3_8 - y14_17 - y32_53 - y2_61 - y14_26 - y13_58 - y36_41 - y7_14 - y18_23 - y47_59 - y9_51 - y5_62 - y40_47 - y6_54 - y40_56 - y21_61 - y54_58 - y33_35 - y2_29 - y20_65 - y10_42 - y32_48 - y3_21 - y13_53 - y24_53 - y43_66 - y35_62 - y16_58 - y17_41 - y28_41 - y36_54 - y17_50 - y47_63 - y9_55 - y6_31 - y40_51 - y6_58 - y39_55 - y2_15 - y20_60 - y2_33 - y3_7 - y51_56 - y13_39 - y3_16 - y43_52 - y13_48 - y24_48 - y35_48 - y13_57 - y24_57 - y24_66 - y16_62 - y36_40 - y17_36 - y47_49 - y5_43 - y6_8 - y28_45 - y9_41 - y47_58 - y5_61 - y6_26 - y28_63 - y9_59 - y50_60 - y6_44 - y20_46 - y31_46 - y31_64 - y54_66 - y32_38 - y24_34 - y3_11 - y1_41 - y13_43 - y24_43 - y16_39 - y43_56 - y24_52 - y35_52 - y32_65 - y1_59 - y13_61 - y35_61 - y28_31 - y9_36 - y6_12 - y42_51 - y61_64 - y0_63 - y2_5 - y20_41 - y31_41 - y31_50 - y39_63 - y31_59 - y12_55 - y13_20 - y1_36 - y35_38 - y5_15 - y46_53 - y9_13 - y16_61 - y5_24 - y17_26 - y36_39 - y46_62 - y5_33 - y5_42 - y6_7 - y5_51 - y21_23 - y27_57 - y8_53 - y30_53 - y0_49 - y30_62 - y42_64 - y20_36 - y39_49 - y31_45 - y23_41 - y31_63 - y4_46 - y12_59 - y23_59 - y32_37 - y43_46 - y24_51 - y1_58 - y17_21 - y5_28 - y9_26 - y38_62 - y49_62 - y9_35 - y27_34 - y7_65 - y18_65 - y6_20 - y27_52 - y50_54 - y8_48 - y42_50 - y0_44 - y42_59 - y20_22 - y0_53 - y19_66 - y30_66 - y11_62 - y39_44 - y12_45 - y1_17 - y13_19 - y4_50 - y23_63 - y1_26 - y24_28 - y53_64 - y56_60 - y1_35 - y5_14 - y15_46 - y9_12 - y5_23 - y57_61 - y15_55 - y38_57 - y5_32 - y18_51 - y38_66 - y7_60 - y8_25 - y19_34 - y0_30 - y8_43 - y0_39 - y8_61 - y20_26 - y0_57 - y11_57 - y0_66 - y20_44 - y4_27 - y12_40 - y34_46 - y1_21 - y53_59 - y16_19 - y45_55 - y37_60 - y5_9 - y46_47 - y5_18 - y15_59 - y26_59 - y38_61 - y27_33 - y18_64 - y27_42 - y0_25 - y8_38 - y11_34 - y8_47 - y30_47 - y0_43 - y30_56 - y12_17 - y41_53 - y52_53 - y11_61 - y23_26 - y31_39 - y44_58 - y12_35 - y23_35 - y25_63 - y4_40 - y22_48 - y34_50 - y37_46 - y16_23 - y26_36 - y7_32 - y15_45 - y26_45 - y26_54 - y49_56 - y7_50 - y8_15 - y0_20 - y11_20 - y19_33 - y11_29 - y29_65 - y0_38 - y41_48 - y60_61 - y41_57 - y52_57 - y4_17 - y23_30 - y25_49 - y52_66 - y4_26 - y1_2 - y2_65 - y1_20 - y22_52 - y34_63 - y3_57 - y3_66 - y15_31 - y59_65 - y38_42 - y26_49 - y18_45 - y8_10 - y15_58 - y48_55 - y11_42 - y12_16 - y60_65 - y4_12 - y44_57 - y10_64 - y44_66 - y1_6 - y25_62 - y37_45 - y22_56 - y14_52 - y22_65 - y3_61 - y18_22 - y15_44 - y26_44 - y7_49 - y48_50 - y0_10 - y29_46 - y8_23 - y40_46 - y11_19 - y40_55 - y11_28 - y25_30 - y10_41 - y10_50 - y44_61 - y2_55 - y3_20 - y22_33 - y34_35 - y2_64 - y14_29 - y14_38 - y14_47 - y7_8
 Subject to
C1: x0+x1 <=1 
C2: x0+x4 <=1 
C3: x0+x5-y0_5 <=1 
C4: x0+x6 <=1 
C5: x0+x10-y0_10 <=1 
C6: x0+x13 <=1 
C7: x0+x17 <=1 
C8: x0+x18 <=1 
C9: x0+x20-y0_20 <=1 
C10: x0+x21 <=1 
C11: x0+x23-y0_23 <=1 
C12: x0+x24 <=1 
C13: x0+x25-y0_25 <=1 
C14: x0+x26-y0_26 <=1 
C15: x0+x29 <=1 
C16: x0+x30-y0_30 <=1 
C17: x0+x31 <=1 
C18: x0+x32 <=1 
C19: x0+x34 <=1 
C20: x0+x35 <=1 
C21: x0+x38-y0_38 <=1 
C22: x0+x39-y0_39 <=1 
C23: x0+x40 <=1 
C24: x0+x41 <=1 
C25: x0+x42 <=1 
C26: x0+x43-y0_43 <=1 
C27: x0+x44-y0_44 <=1 
C28: x0+x45 <=1 
C29: x0+x46-y0_46 <=1 
C30: x0+x47 <=1 
C31: x0+x48 <=1 
C32: x0+x49-y0_49 <=1 
C33: x0+x50 <=1 
C34: x0+x51 <=1 
C35: x0+x53-y0_53 <=1 
C36: x0+x54 <=1 
C37: x0+x56-y0_56 <=1 
C38: x0+x57-y0_57 <=1 
C39: x0+x58 <=1 
C40: x0+x59 <=1 
C41: x0+x60-y0_60 <=1 
C42: x0+x62 <=1 
C43: x0+x63-y0_63 <=1 
C44: x0+x64-y0_64 <=1 
C45: x0+x65 <=1 
C46: x0+x66-y0_66 <=1 
C47: x1+x2-y1_2 <=1 
C48: x1+x3 <=1 
C49: x1+x4 <=1 
C50: x1+x5-y1_5 <=1 
C51: x1+x6-y1_6 <=1 
C52: x1+x8 <=1 
C53: x1+x9 <=1 
C54: x1+x13 <=1 
C55: x1+x14 <=1 
C56: x1+x17-y1_17 <=1 
C57: x1+x18-y1_18 <=1 
C58: x1+x20-y1_20 <=1 
C59: x1+x21-y1_21 <=1 
C60: x1+x24 <=1 
C61: x1+x26-y1_26 <=1 
C62: x1+x27 <=1 
C63: x1+x28 <=1 
C64: x1+x29 <=1 
C65: x1+x31 <=1 
C66: x1+x32-y1_32 <=1 
C67: x1+x33 <=1 
C68: x1+x35-y1_35 <=1 
C69: x1+x36-y1_36 <=1 
C70: x1+x37 <=1 
C71: x1+x40 <=1 
C72: x1+x41-y1_41 <=1 
C73: x1+x42 <=1 
C74: x1+x43 <=1 
C75: x1+x45 <=1 
C76: x1+x46-y1_46 <=1 
C77: x1+x48-y1_48 <=1 
C78: x1+x49 <=1 
C79: x1+x50 <=1 
C80: x1+x51-y1_51 <=1 
C81: x1+x53-y1_53 <=1 
C82: x1+x54 <=1 
C83: x1+x57-y1_57 <=1 
C84: x1+x58-y1_58 <=1 
C85: x1+x59-y1_59 <=1 
C86: x1+x60 <=1 
C87: x1+x65 <=1 
C88: x2+x5-y2_5 <=1 
C89: x2+x7-y2_7 <=1 
C90: x2+x9 <=1 
C91: x2+x11 <=1 
C92: x2+x12-y2_12 <=1 
C93: x2+x15-y2_15 <=1 
C94: x2+x17-y2_17 <=1 
C95: x2+x20 <=1 
C96: x2+x21 <=1 
C97: x2+x22-y2_22 <=1 
C98: x2+x24 <=1 
C99: x2+x25-y2_25 <=1 
C100: x2+x28 <=1 
C101: x2+x29-y2_29 <=1 
C102: x2+x30 <=1 
C103: x2+x31 <=1 
C104: x2+x33-y2_33 <=1 
C105: x2+x36-y2_36 <=1 
C106: x2+x37 <=1 
C107: x2+x38 <=1 
C108: x2+x39 <=1 
C109: x2+x40-y2_40 <=1 
C110: x2+x41-y2_41 <=1 
C111: x2+x43 <=1 
C112: x2+x44 <=1 
C113: x2+x47 <=1 
C114: x2+x48 <=1 
C115: x2+x49-y2_49 <=1 
C116: x2+x50 <=1 
C117: x2+x51 <=1 
C118: x2+x52 <=1 
C119: x2+x53 <=1 
C120: x2+x55-y2_55 <=1 
C121: x2+x57-y2_57 <=1 
C122: x2+x59 <=1 
C123: x2+x61-y2_61 <=1 
C124: x2+x63-y2_63 <=1 
C125: x2+x64-y2_64 <=1 
C126: x2+x65-y2_65 <=1 
C127: x2+x66 <=1 
C128: x3+x5 <=1 
C129: x3+x7-y3_7 <=1 
C130: x3+x8-y3_8 <=1 
C131: x3+x9 <=1 
C132: x3+x11-y3_11 <=1 
C133: x3+x12 <=1 
C134: x3+x14 <=1 
C135: x3+x16-y3_16 <=1 
C136: x3+x18 <=1 
C137: x3+x19-y3_19 <=1 
C138: x3+x20-y3_20 <=1 
C139: x3+x21-y3_21 <=1 
C140: x3+x22 <=1 
C141: x3+x23 <=1 
C142: x3+x24-y3_24 <=1 
C143: x3+x26 <=1 
C144: x3+x27 <=1 
C145: x3+x30 <=1 
C146: x3+x33 <=1 
C147: x3+x34 <=1 
C148: x3+x35 <=1 
C149: x3+x37-y3_37 <=1 
C150: x3+x38 <=1 
C151: x3+x39 <=1 
C152: x3+x40 <=1 
C153: x3+x41 <=1 
C154: x3+x42-y3_42 <=1 
C155: x3+x43 <=1 
C156: x3+x44 <=1 
C157: x3+x45-y3_45 <=1 
C158: x3+x47 <=1 
C159: x3+x48 <=1 
C160: x3+x50-y3_50 <=1 
C161: x3+x54 <=1 
C162: x3+x57-y3_57 <=1 
C163: x3+x59-y3_59 <=1 
C164: x3+x61-y3_61 <=1 
C165: x3+x62 <=1 
C166: x3+x63-y3_63 <=1 
C167: x3+x64 <=1 
C168: x3+x66-y3_66 <=1 
C169: x4+x5 <=1 
C170: x4+x6 <=1 
C171: x4+x11 <=1 
C172: x4+x12-y4_12 <=1 
C173: x4+x13 <=1 
C174: x4+x14-y4_14 <=1 
C175: x4+x15-y4_15 <=1 
C176: x4+x16 <=1 
C177: x4+x17-y4_17 <=1 
C178: x4+x18 <=1 
C179: x4+x19-y4_19 <=1 
C180: x4+x23 <=1 
C181: x4+x25-y4_25 <=1 
C182: x4+x26-y4_26 <=1 
C183: x4+x27-y4_27 <=1 
C184: x4+x29 <=1 
C185: x4+x30 <=1 
C186: x4+x35 <=1 
C187: x4+x36 <=1 
C188: x4+x38 <=1 
C189: x4+x39-y4_39 <=1 
C190: x4+x40-y4_40 <=1 
C191: x4+x41 <=1 
C192: x4+x45 <=1 
C193: x4+x46-y4_46 <=1 
C194: x4+x47-y4_47 <=1 
C195: x4+x48 <=1 
C196: x4+x49 <=1 
C197: x4+x50-y4_50 <=1 
C198: x4+x53 <=1 
C199: x4+x57-y4_57 <=1 
C200: x4+x59 <=1 
C201: x4+x61 <=1 
C202: x4+x62-y4_62 <=1 
C203: x5+x6 <=1 
C204: x5+x9-y5_9 <=1 
C205: x5+x11-y5_11 <=1 
C206: x5+x13 <=1 
C207: x5+x14-y5_14 <=1 
C208: x5+x15-y5_15 <=1 
C209: x5+x17-y5_17 <=1 
C210: x5+x18-y5_18 <=1 
C211: x5+x19 <=1 
C212: x5+x20 <=1 
C213: x5+x21 <=1 
C214: x5+x22 <=1 
C215: x5+x23-y5_23 <=1 
C216: x5+x24-y5_24 <=1 
C217: x5+x25-y5_25 <=1 
C218: x5+x26 <=1 
C219: x5+x28-y5_28 <=1 
C220: x5+x29 <=1 
C221: x5+x30-y5_30 <=1 
C222: x5+x31 <=1 
C223: x5+x32-y5_32 <=1 
C224: x5+x33-y5_33 <=1 
C225: x5+x36 <=1 
C226: x5+x38 <=1 
C227: x5+x39 <=1 
C228: x5+x41 <=1 
C229: x5+x42-y5_42 <=1 
C230: x5+x43-y5_43 <=1 
C231: x5+x44 <=1 
C232: x5+x45 <=1 
C233: x5+x48 <=1 
C234: x5+x49 <=1 
C235: x5+x50 <=1 
C236: x5+x51-y5_51 <=1 
C237: x5+x52 <=1 
C238: x5+x55 <=1 
C239: x5+x58 <=1 
C240: x5+x59-y5_59 <=1 
C241: x5+x60 <=1 
C242: x5+x61-y5_61 <=1 
C243: x5+x62-y5_62 <=1 
C244: x5+x63 <=1 
C245: x5+x65 <=1 
C246: x6+x7-y6_7 <=1 
C247: x6+x8-y6_8 <=1 
C248: x6+x9-y6_9 <=1 
C249: x6+x11 <=1 
C250: x6+x12-y6_12 <=1 
C251: x6+x14-y6_14 <=1 
C252: x6+x18 <=1 
C253: x6+x20-y6_20 <=1 
C254: x6+x24 <=1 
C255: x6+x26-y6_26 <=1 
C256: x6+x28-y6_28 <=1 
C257: x6+x31-y6_31 <=1 
C258: x6+x33 <=1 
C259: x6+x35 <=1 
C260: x6+x36 <=1 
C261: x6+x39 <=1 
C262: x6+x41-y6_41 <=1 
C263: x6+x43-y6_43 <=1 
C264: x6+x44-y6_44 <=1 
C265: x6+x45 <=1 
C266: x6+x52-y6_52 <=1 
C267: x6+x54-y6_54 <=1 
C268: x6+x55 <=1 
C269: x6+x56 <=1 
C270: x6+x57 <=1 
C271: x6+x58-y6_58 <=1 
C272: x6+x60 <=1 
C273: x6+x61-y6_61 <=1 
C274: x6+x64-y6_64 <=1 
C275: x7+x8-y7_8 <=1 
C276: x7+x9 <=1 
C277: x7+x12-y7_12 <=1 
C278: x7+x14-y7_14 <=1 
C279: x7+x15-y7_15 <=1 
C280: x7+x16-y7_16 <=1 
C281: x7+x17-y7_17 <=1 
C282: x7+x20 <=1 
C283: x7+x23 <=1 
C284: x7+x25 <=1 
C285: x7+x26 <=1 
C286: x7+x29-y7_29 <=1 
C287: x7+x30-y7_30 <=1 
C288: x7+x31 <=1 
C289: x7+x32-y7_32 <=1 
C290: x7+x34-y7_34 <=1 
C291: x7+x38 <=1 
C292: x7+x39-y7_39 <=1 
C293: x7+x49-y7_49 <=1 
C294: x7+x50-y7_50 <=1 
C295: x7+x51 <=1 
C296: x7+x52 <=1 
C297: x7+x53 <=1 
C298: x7+x54 <=1 
C299: x7+x58 <=1 
C300: x7+x60-y7_60 <=1 
C301: x7+x62-y7_62 <=1 
C302: x7+x65-y7_65 <=1 
C303: x8+x10-y8_10 <=1 
C304: x8+x11-y8_11 <=1 
C305: x8+x12-y8_12 <=1 
C306: x8+x13 <=1 
C307: x8+x15-y8_15 <=1 
C308: x8+x17-y8_17 <=1 
C309: x8+x18-y8_18 <=1 
C310: x8+x19 <=1 
C311: x8+x20 <=1 
C312: x8+x21 <=1 
C313: x8+x22-y8_22 <=1 
C314: x8+x23-y8_23 <=1 
C315: x8+x25-y8_25 <=1 
C316: x8+x27 <=1 
C317: x8+x29 <=1 
C318: x8+x32 <=1 
C319: x8+x33 <=1 
C320: x8+x34 <=1 
C321: x8+x35-y8_35 <=1 
C322: x8+x36-y8_36 <=1 
C323: x8+x37 <=1 
C324: x8+x38-y8_38 <=1 
C325: x8+x41 <=1 
C326: x8+x42 <=1 
C327: x8+x43-y8_43 <=1 
C328: x8+x44 <=1 
C329: x8+x46 <=1 
C330: x8+x47-y8_47 <=1 
C331: x8+x48-y8_48 <=1 
C332: x8+x50-y8_50 <=1 
C333: x8+x53-y8_53 <=1 
C334: x8+x54 <=1 
C335: x8+x55 <=1 
C336: x8+x59 <=1 
C337: x8+x60-y8_60 <=1 
C338: x8+x61-y8_61 <=1 
C339: x8+x63-y8_63 <=1 
C340: x8+x64 <=1 
C341: x8+x65-y8_65 <=1 
C342: x9+x11-y9_11 <=1 
C343: x9+x12-y9_12 <=1 
C344: x9+x13-y9_13 <=1 
C345: x9+x14 <=1 
C346: x9+x15-y9_15 <=1 
C347: x9+x17 <=1 
C348: x9+x18 <=1 
C349: x9+x19 <=1 
C350: x9+x24 <=1 
C351: x9+x26-y9_26 <=1 
C352: x9+x27 <=1 
C353: x9+x31 <=1 
C354: x9+x35-y9_35 <=1 
C355: x9+x36-y9_36 <=1 
C356: x9+x37 <=1 
C357: x9+x38-y9_38 <=1 
C358: x9+x39-y9_39 <=1 
C359: x9+x40 <=1 
C360: x9+x41-y9_41 <=1 
C361: x9+x45 <=1 
C362: x9+x46 <=1 
C363: x9+x50 <=1 
C364: x9+x51-y9_51 <=1 
C365: x9+x52-y9_52 <=1 
C366: x9+x55-y9_55 <=1 
C367: x9+x57-y9_57 <=1 
C368: x9+x59-y9_59 <=1 
C369: x9+x60 <=1 
C370: x9+x61-y9_61 <=1 
C371: x9+x62-y9_62 <=1 
C372: x9+x64 <=1 
C373: x9+x65 <=1 
C374: x9+x66 <=1 
C375: x10+x11 <=1 
C376: x10+x12-y10_12 <=1 
C377: x10+x14 <=1 
C378: x10+x15 <=1 
C379: x10+x16-y10_16 <=1 
C380: x10+x19 <=1 
C381: x10+x20 <=1 
C382: x10+x23 <=1 
C383: x10+x26-y10_26 <=1 
C384: x10+x27-y10_27 <=1 
C385: x10+x29-y10_29 <=1 
C386: x10+x30 <=1 
C387: x10+x35 <=1 
C388: x10+x41-y10_41 <=1 
C389: x10+x42-y10_42 <=1 
C390: x10+x43 <=1 
C391: x10+x45-y10_45 <=1 
C392: x10+x47 <=1 
C393: x10+x48 <=1 
C394: x10+x50-y10_50 <=1 
C395: x10+x52 <=1 
C396: x10+x53-y10_53 <=1 
C397: x10+x54 <=1 
C398: x10+x57-y10_57 <=1 
C399: x10+x58-y10_58 <=1 
C400: x10+x61 <=1 
C401: x10+x62-y10_62 <=1 
C402: x10+x63-y10_63 <=1 
C403: x10+x64-y10_64 <=1 
C404: x10+x66 <=1 
C405: x11+x12 <=1 
C406: x11+x15 <=1 
C407: x11+x17 <=1 
C408: x11+x18 <=1 
C409: x11+x19-y11_19 <=1 
C410: x11+x20-y11_20 <=1 
C411: x11+x21 <=1 
C412: x11+x22-y11_22 <=1 
C413: x11+x27 <=1 
C414: x11+x28-y11_28 <=1 
C415: x11+x29-y11_29 <=1 
C416: x11+x30 <=1 
C417: x11+x32-y11_32 <=1 
C418: x11+x33 <=1 
C419: x11+x34-y11_34 <=1 
C420: x11+x36-y11_36 <=1 
C421: x11+x40-y11_40 <=1 
C422: x11+x42-y11_42 <=1 
C423: x11+x44 <=1 
C424: x11+x46-y11_46 <=1 
C425: x11+x48 <=1 
C426: x11+x49 <=1 
C427: x11+x51-y11_51 <=1 
C428: x11+x53 <=1 
C429: x11+x54-y11_54 <=1 
C430: x11+x57-y11_57 <=1 
C431: x11+x58 <=1 
C432: x11+x61-y11_61 <=1 
C433: x11+x62-y11_62 <=1 
C434: x12+x16-y12_16 <=1 
C435: x12+x17-y12_17 <=1 
C436: x12+x20-y12_20 <=1 
C437: x12+x22 <=1 
C438: x12+x23 <=1 
C439: x12+x24-y12_24 <=1 
C440: x12+x26 <=1 
C441: x12+x28-y12_28 <=1 
C442: x12+x31 <=1 
C443: x12+x35-y12_35 <=1 
C444: x12+x37 <=1 
C445: x12+x38-y12_38 <=1 
C446: x12+x39-y12_39 <=1 
C447: x12+x40-y12_40 <=1 
C448: x12+x41 <=1 
C449: x12+x45-y12_45 <=1 
C450: x12+x46 <=1 
C451: x12+x49 <=1 
C452: x12+x50 <=1 
C453: x12+x51 <=1 
C454: x12+x52-y12_52 <=1 
C455: x12+x55-y12_55 <=1 
C456: x12+x58 <=1 
C457: x12+x59-y12_59 <=1 
C458: x12+x60 <=1 
C459: x12+x62-y12_62 <=1 
C460: x12+x63-y12_63 <=1 
C461: x12+x65 <=1 
C462: x12+x66-y12_66 <=1 
C463: x13+x14 <=1 
C464: x13+x15 <=1 
C465: x13+x19-y13_19 <=1 
C466: x13+x20-y13_20 <=1 
C467: x13+x21 <=1 
C468: x13+x25 <=1 
C469: x13+x26-y13_26 <=1 
C470: x13+x30-y13_30 <=1 
C471: x13+x31 <=1 
C472: x13+x32 <=1 
C473: x13+x33 <=1 
C474: x13+x35-y13_35 <=1 
C475: x13+x36 <=1 
C476: x13+x37 <=1 
C477: x13+x38 <=1 
C478: x13+x39-y13_39 <=1 
C479: x13+x40 <=1 
C480: x13+x43-y13_43 <=1 
C481: x13+x46 <=1 
C482: x13+x48-y13_48 <=1 
C483: x13+x49 <=1 
C484: x13+x51-y13_51 <=1 
C485: x13+x52 <=1 
C486: x13+x53-y13_53 <=1 
C487: x13+x55-y13_55 <=1 
C488: x13+x57-y13_57 <=1 
C489: x13+x58-y13_58 <=1 
C490: x13+x59 <=1 
C491: x13+x60-y13_60 <=1 
C492: x13+x61-y13_61 <=1 
C493: x13+x62 <=1 
C494: x13+x63-y13_63 <=1 
C495: x13+x66 <=1 
C496: x14+x17-y14_17 <=1 
C497: x14+x18 <=1 
C498: x14+x19-y14_19 <=1 
C499: x14+x22-y14_22 <=1 
C500: x14+x24 <=1 
C501: x14+x26-y14_26 <=1 
C502: x14+x27 <=1 
C503: x14+x28-y14_28 <=1 
C504: x14+x29-y14_29 <=1 
C505: x14+x32-y14_32 <=1 
C506: x14+x33 <=1 
C507: x14+x34 <=1 
C508: x14+x36 <=1 
C509: x14+x37-y14_37 <=1 
C510: x14+x38-y14_38 <=1 
C511: x14+x39 <=1 
C512: x14+x41-y14_41 <=1 
C513: x14+x42 <=1 
C514: x14+x45-y14_45 <=1 
C515: x14+x47-y14_47 <=1 
C516: x14+x49-y14_49 <=1 
C517: x14+x50-y14_50 <=1 
C518: x14+x52-y14_52 <=1 
C519: x14+x53 <=1 
C520: x14+x54-y14_54 <=1 
C521: x14+x58 <=1 
C522: x14+x59 <=1 
C523: x14+x60-y14_60 <=1 
C524: x14+x62 <=1 
C525: x14+x64-y14_64 <=1 
C526: x14+x65-y14_65 <=1 
C527: x14+x66 <=1 
C528: x15+x16-y15_16 <=1 
C529: x15+x19 <=1 
C530: x15+x20 <=1 
C531: x15+x21-y15_21 <=1 
C532: x15+x23-y15_23 <=1 
C533: x15+x24 <=1 
C534: x15+x26 <=1 
C535: x15+x27 <=1 
C536: x15+x29-y15_29 <=1 
C537: x15+x31-y15_31 <=1 
C538: x15+x33 <=1 
C539: x15+x35 <=1 
C540: x15+x37 <=1 
C541: x15+x38 <=1 
C542: x15+x39 <=1 
C543: x15+x40 <=1 
C544: x15+x41 <=1 
C545: x15+x44-y15_44 <=1 
C546: x15+x45-y15_45 <=1 
C547: x15+x46-y15_46 <=1 
C548: x15+x47-y15_47 <=1 
C549: x15+x48 <=1 
C550: x15+x52 <=1 
C551: x15+x54 <=1 
C552: x15+x55-y15_55 <=1 
C553: x15+x57-y15_57 <=1 
C554: x15+x58-y15_58 <=1 
C555: x15+x59-y15_59 <=1 
C556: x15+x61-y15_61 <=1 
C557: x15+x62-y15_62 <=1 
C558: x16+x17 <=1 
C559: x16+x18 <=1 
C560: x16+x19-y16_19 <=1 
C561: x16+x21 <=1 
C562: x16+x23-y16_23 <=1 
C563: x16+x24 <=1 
C564: x16+x25 <=1 
C565: x16+x26-y16_26 <=1 
C566: x16+x27-y16_27 <=1 
C567: x16+x34 <=1 
C568: x16+x35 <=1 
C569: x16+x36-y16_36 <=1 
C570: x16+x39-y16_39 <=1 
C571: x16+x41-y16_41 <=1 
C572: x16+x42 <=1 
C573: x16+x46 <=1 
C574: x16+x49 <=1 
C575: x16+x53 <=1 
C576: x16+x54 <=1 
C577: x16+x58-y16_58 <=1 
C578: x16+x60 <=1 
C579: x16+x61-y16_61 <=1 
C580: x16+x62-y16_62 <=1 
C581: x16+x63 <=1 
C582: x16+x65-y16_65 <=1 
C583: x16+x66 <=1 
C584: x17+x18 <=1 
C585: x17+x19 <=1 
C586: x17+x20 <=1 
C587: x17+x21-y17_21 <=1 
C588: x17+x23 <=1 
C589: x17+x24 <=1 
C590: x17+x25-y17_25 <=1 
C591: x17+x26-y17_26 <=1 
C592: x17+x29 <=1 
C593: x17+x31 <=1 
C594: x17+x33 <=1 
C595: x17+x36-y17_36 <=1 
C596: x17+x37-y17_37 <=1 
C597: x17+x38 <=1 
C598: x17+x39-y17_39 <=1 
C599: x17+x41-y17_41 <=1 
C600: x17+x42 <=1 
C601: x17+x43 <=1 
C602: x17+x44 <=1 
C603: x17+x46 <=1 
C604: x17+x47 <=1 
C605: x17+x48-y17_48 <=1 
C606: x17+x49 <=1 
C607: x17+x50-y17_50 <=1 
C608: x17+x51-y17_51 <=1 
C609: x17+x52-y17_52 <=1 
C610: x17+x55 <=1 
C611: x17+x56-y17_56 <=1 
C612: x17+x57 <=1 
C613: x17+x59 <=1 
C614: x17+x60 <=1 
C615: x17+x61 <=1 
C616: x17+x64 <=1 
C617: x18+x21 <=1 
C618: x18+x22-y18_22 <=1 
C619: x18+x23-y18_23 <=1 
C620: x18+x26-y18_26 <=1 
C621: x18+x29-y18_29 <=1 
C622: x18+x30-y18_30 <=1 
C623: x18+x32 <=1 
C624: x18+x34 <=1 
C625: x18+x38 <=1 
C626: x18+x40 <=1 
C627: x18+x41 <=1 
C628: x18+x42 <=1 
C629: x18+x44-y18_44 <=1 
C630: x18+x45-y18_45 <=1 
C631: x18+x46 <=1 
C632: x18+x47-y18_47 <=1 
C633: x18+x49 <=1 
C634: x18+x51-y18_51 <=1 
C635: x18+x52-y18_52 <=1 
C636: x18+x53 <=1 
C637: x18+x56-y18_56 <=1 
C638: x18+x59 <=1 
C639: x18+x60 <=1 
C640: x18+x61-y18_61 <=1 
C641: x18+x62 <=1 
C642: x18+x64-y18_64 <=1 
C643: x18+x65-y18_65 <=1 
C644: x19+x21 <=1 
C645: x19+x22-y19_22 <=1 
C646: x19+x25-y19_25 <=1 
C647: x19+x27 <=1 
C648: x19+x29 <=1 
C649: x19+x31 <=1 
C650: x19+x32-y19_32 <=1 
C651: x19+x33-y19_33 <=1 
C652: x19+x34-y19_34 <=1 
C653: x19+x37 <=1 
C654: x19+x38 <=1 
C655: x19+x39 <=1 
C656: x19+x40-y19_40 <=1 
C657: x19+x41 <=1 
C658: x19+x43 <=1 
C659: x19+x45 <=1 
C660: x19+x46 <=1 
C661: x19+x48 <=1 
C662: x19+x50 <=1 
C663: x19+x51 <=1 
C664: x19+x52 <=1 
C665: x19+x53 <=1 
C666: x19+x55 <=1 
C667: x19+x56 <=1 
C668: x19+x58 <=1 
C669: x19+x59-y19_59 <=1 
C670: x19+x60 <=1 
C671: x19+x62 <=1 
C672: x19+x64-y19_64 <=1 
C673: x19+x65 <=1 
C674: x19+x66-y19_66 <=1 
C675: x20+x22-y20_22 <=1 
C676: x20+x23-y20_23 <=1 
C677: x20+x25 <=1 
C678: x20+x26-y20_26 <=1 
C679: x20+x28 <=1 
C680: x20+x33 <=1 
C681: x20+x34-y20_34 <=1 
C682: x20+x36-y20_36 <=1 
C683: x20+x37 <=1 
C684: x20+x38-y20_38 <=1 
C685: x20+x39 <=1 
C686: x20+x41-y20_41 <=1 
C687: x20+x43 <=1 
C688: x20+x44-y20_44 <=1 
C689: x20+x46-y20_46 <=1 
C690: x20+x48 <=1 
C691: x20+x50 <=1 
C692: x20+x53 <=1 
C693: x20+x54 <=1 
C694: x20+x56-y20_56 <=1 
C695: x20+x59 <=1 
C696: x20+x60-y20_60 <=1 
C697: x20+x61-y20_61 <=1 
C698: x20+x63 <=1 
C699: x20+x65-y20_65 <=1 
C700: x20+x66-y20_66 <=1 
C701: x21+x22-y21_22 <=1 
C702: x21+x23-y21_23 <=1 
C703: x21+x25 <=1 
C704: x21+x26 <=1 
C705: x21+x29 <=1 
C706: x21+x31 <=1 
C707: x21+x34 <=1 
C708: x21+x35-y21_35 <=1 
C709: x21+x36 <=1 
C710: x21+x37-y21_37 <=1 
C711: x21+x42 <=1 
C712: x21+x43 <=1 
C713: x21+x44 <=1 
C714: x21+x45-y21_45 <=1 
C715: x21+x46 <=1 
C716: x21+x48 <=1 
C717: x21+x49 <=1 
C718: x21+x50-y21_50 <=1 
C719: x21+x54-y21_54 <=1 
C720: x21+x55 <=1 
C721: x21+x57 <=1 
C722: x21+x60 <=1 
C723: x21+x61-y21_61 <=1 
C724: x21+x63-y21_63 <=1 
C725: x21+x66-y21_66 <=1 
C726: x22+x23 <=1 
C727: x22+x24 <=1 
C728: x22+x25 <=1 
C729: x22+x27 <=1 
C730: x22+x28 <=1 
C731: x22+x30 <=1 
C732: x22+x31 <=1 
C733: x22+x32-y22_32 <=1 
C734: x22+x33-y22_33 <=1 
C735: x22+x34 <=1 
C736: x22+x35 <=1 
C737: x22+x37-y22_37 <=1 
C738: x22+x39 <=1 
C739: x22+x40 <=1 
C740: x22+x41-y22_41 <=1 
C741: x22+x42 <=1 
C742: x22+x44-y22_44 <=1 
C743: x22+x46 <=1 
C744: x22+x48-y22_48 <=1 
C745: x22+x49 <=1 
C746: x22+x50-y22_50 <=1 
C747: x22+x51 <=1 
C748: x22+x52-y22_52 <=1 
C749: x22+x55 <=1 
C750: x22+x56-y22_56 <=1 
C751: x22+x60-y22_60 <=1 
C752: x22+x63 <=1 
C753: x22+x64 <=1 
C754: x22+x65-y22_65 <=1 
C755: x23+x24-y23_24 <=1 
C756: x23+x26-y23_26 <=1 
C757: x23+x29-y23_29 <=1 
C758: x23+x30-y23_30 <=1 
C759: x23+x33-y23_33 <=1 
C760: x23+x34-y23_34 <=1 
C761: x23+x35-y23_35 <=1 
C762: x23+x36 <=1 
C763: x23+x38 <=1 
C764: x23+x39 <=1 
C765: x23+x41-y23_41 <=1 
C766: x23+x43-y23_43 <=1 
C767: x23+x44 <=1 
C768: x23+x46 <=1 
C769: x23+x51 <=1 
C770: x23+x52-y23_52 <=1 
C771: x23+x53 <=1 
C772: x23+x54 <=1 
C773: x23+x56-y23_56 <=1 
C774: x23+x57-y23_57 <=1 
C775: x23+x58-y23_58 <=1 
C776: x23+x59-y23_59 <=1 
C777: x23+x61-y23_61 <=1 
C778: x23+x62-y23_62 <=1 
C779: x23+x63-y23_63 <=1 
C780: x24+x27-y24_27 <=1 
C781: x24+x28-y24_28 <=1 
C782: x24+x29 <=1 
C783: x24+x30 <=1 
C784: x24+x31 <=1 
C785: x24+x32 <=1 
C786: x24+x33 <=1 
C787: x24+x34-y24_34 <=1 
C788: x24+x36 <=1 
C789: x24+x38 <=1 
C790: x24+x43-y24_43 <=1 
C791: x24+x44 <=1 
C792: x24+x45 <=1 
C793: x24+x46 <=1 
C794: x24+x48-y24_48 <=1 
C795: x24+x49-y24_49 <=1 
C796: x24+x50-y24_50 <=1 
C797: x24+x51-y24_51 <=1 
C798: x24+x52-y24_52 <=1 
C799: x24+x53-y24_53 <=1 
C800: x24+x55-y24_55 <=1 
C801: x24+x57-y24_57 <=1 
C802: x24+x58 <=1 
C803: x24+x62 <=1 
C804: x24+x63 <=1 
C805: x24+x64-y24_64 <=1 
C806: x24+x65 <=1 
C807: x24+x66-y24_66 <=1 
C808: x25+x27-y25_27 <=1 
C809: x25+x29 <=1 
C810: x25+x30-y25_30 <=1 
C811: x25+x32 <=1 
C812: x25+x35 <=1 
C813: x25+x36-y25_36 <=1 
C814: x25+x37 <=1 
C815: x25+x41 <=1 
C816: x25+x42-y25_42 <=1 
C817: x25+x43 <=1 
C818: x25+x46 <=1 
C819: x25+x47-y25_47 <=1 
C820: x25+x49-y25_49 <=1 
C821: x25+x50 <=1 
C822: x25+x51 <=1 
C823: x25+x52-y25_52 <=1 
C824: x25+x53 <=1 
C825: x25+x54 <=1 
C826: x25+x57 <=1 
C827: x25+x59-y25_59 <=1 
C828: x25+x60-y25_60 <=1 
C829: x25+x61-y25_61 <=1 
C830: x25+x62-y25_62 <=1 
C831: x25+x63-y25_63 <=1 
C832: x25+x66 <=1 
C833: x26+x32 <=1 
C834: x26+x34-y26_34 <=1 
C835: x26+x36-y26_36 <=1 
C836: x26+x37-y26_37 <=1 
C837: x26+x39 <=1 
C838: x26+x40 <=1 
C839: x26+x41 <=1 
C840: x26+x42-y26_42 <=1 
C841: x26+x43 <=1 
C842: x26+x44-y26_44 <=1 
C843: x26+x45-y26_45 <=1 
C844: x26+x49-y26_49 <=1 
C845: x26+x50 <=1 
C846: x26+x52 <=1 
C847: x26+x54-y26_54 <=1 
C848: x26+x56-y26_56 <=1 
C849: x26+x57-y26_57 <=1 
C850: x26+x59-y26_59 <=1 
C851: x26+x60 <=1 
C852: x26+x62-y26_62 <=1 
C853: x26+x63 <=1 
C854: x26+x65 <=1 
C855: x26+x66 <=1 
C856: x27+x28 <=1 
C857: x27+x33-y27_33 <=1 
C858: x27+x34-y27_34 <=1 
C859: x27+x36-y27_36 <=1 
C860: x27+x37 <=1 
C861: x27+x39-y27_39 <=1 
C862: x27+x41-y27_41 <=1 
C863: x27+x42-y27_42 <=1 
C864: x27+x44-y27_44 <=1 
C865: x27+x47 <=1 
C866: x27+x50-y27_50 <=1 
C867: x27+x51 <=1 
C868: x27+x52-y27_52 <=1 
C869: x27+x53 <=1 
C870: x27+x54 <=1 
C871: x27+x56 <=1 
C872: x27+x57-y27_57 <=1 
C873: x27+x58 <=1 
C874: x27+x66 <=1 
C875: x28+x31-y28_31 <=1 
C876: x28+x32 <=1 
C877: x28+x33-y28_33 <=1 
C878: x28+x37-y28_37 <=1 
C879: x28+x41-y28_41 <=1 
C880: x28+x45-y28_45 <=1 
C881: x28+x46 <=1 
C882: x28+x48 <=1 
C883: x28+x49 <=1 
C884: x28+x52 <=1 
C885: x28+x56 <=1 
C886: x28+x58 <=1 
C887: x28+x59 <=1 
C888: x28+x61 <=1 
C889: x28+x63-y28_63 <=1 
C890: x28+x66-y28_66 <=1 
C891: x29+x31 <=1 
C892: x29+x34 <=1 
C893: x29+x35-y29_35 <=1 
C894: x29+x36 <=1 
C895: x29+x39-y29_39 <=1 
C896: x29+x40 <=1 
C897: x29+x41 <=1 
C898: x29+x44 <=1 
C899: x29+x45 <=1 
C900: x29+x46-y29_46 <=1 
C901: x29+x48-y29_48 <=1 
C902: x29+x49 <=1 
C903: x29+x50-y29_50 <=1 
C904: x29+x51 <=1 
C905: x29+x52-y29_52 <=1 
C906: x29+x53 <=1 
C907: x29+x56 <=1 
C908: x29+x57-y29_57 <=1 
C909: x29+x61-y29_61 <=1 
C910: x29+x62 <=1 
C911: x29+x64 <=1 
C912: x29+x65-y29_65 <=1 
C913: x29+x66 <=1 
C914: x30+x32 <=1 
C915: x30+x33 <=1 
C916: x30+x34 <=1 
C917: x30+x36 <=1 
C918: x30+x39 <=1 
C919: x30+x40 <=1 
C920: x30+x41-y30_41 <=1 
C921: x30+x44 <=1 
C922: x30+x46-y30_46 <=1 
C923: x30+x47-y30_47 <=1 
C924: x30+x53-y30_53 <=1 
C925: x30+x56-y30_56 <=1 
C926: x30+x60-y30_60 <=1 
C927: x30+x61 <=1 
C928: x30+x62-y30_62 <=1 
C929: x30+x63-y30_63 <=1 
C930: x30+x64-y30_64 <=1 
C931: x30+x65 <=1 
C932: x30+x66-y30_66 <=1 
C933: x31+x32-y31_32 <=1 
C934: x31+x35 <=1 
C935: x31+x39-y31_39 <=1 
C936: x31+x40 <=1 
C937: x31+x41-y31_41 <=1 
C938: x31+x42 <=1 
C939: x31+x43 <=1 
C940: x31+x45-y31_45 <=1 
C941: x31+x46-y31_46 <=1 
C942: x31+x48 <=1 
C943: x31+x50-y31_50 <=1 
C944: x31+x51 <=1 
C945: x31+x52-y31_52 <=1 
C946: x31+x53 <=1 
C947: x31+x55 <=1 
C948: x31+x56-y31_56 <=1 
C949: x31+x57 <=1 
C950: x31+x59-y31_59 <=1 
C951: x31+x61-y31_61 <=1 
C952: x31+x62-y31_62 <=1 
C953: x31+x63-y31_63 <=1 
C954: x31+x64-y31_64 <=1 
C955: x32+x35-y32_35 <=1 
C956: x32+x36-y32_36 <=1 
C957: x32+x37-y32_37 <=1 
C958: x32+x38-y32_38 <=1 
C959: x32+x39 <=1 
C960: x32+x40 <=1 
C961: x32+x41 <=1 
C962: x32+x44 <=1 
C963: x32+x45 <=1 
C964: x32+x48-y32_48 <=1 
C965: x32+x49-y32_49 <=1 
C966: x32+x51 <=1 
C967: x32+x53-y32_53 <=1 
C968: x32+x55 <=1 
C969: x32+x56 <=1 
C970: x32+x58 <=1 
C971: x32+x59-y32_59 <=1 
C972: x32+x60-y32_60 <=1 
C973: x32+x61 <=1 
C974: x32+x62 <=1 
C975: x32+x64 <=1 
C976: x32+x65-y32_65 <=1 
C977: x33+x35-y33_35 <=1 
C978: x33+x42-y33_42 <=1 
C979: x33+x44 <=1 
C980: x33+x45-y33_45 <=1 
C981: x33+x47 <=1 
C982: x33+x48 <=1 
C983: x33+x50-y33_50 <=1 
C984: x33+x51-y33_51 <=1 
C985: x33+x55-y33_55 <=1 
C986: x33+x56 <=1 
C987: x33+x58 <=1 
C988: x33+x60-y33_60 <=1 
C989: x33+x61 <=1 
C990: x33+x65-y33_65 <=1 
C991: x34+x35-y34_35 <=1 
C992: x34+x36 <=1 
C993: x34+x37 <=1 
C994: x34+x38 <=1 
C995: x34+x39-y34_39 <=1 
C996: x34+x40 <=1 
C997: x34+x43 <=1 
C998: x34+x45 <=1 
C999: x34+x46-y34_46 <=1 
C1000: x34+x47 <=1 
C1001: x34+x50-y34_50 <=1 
C1002: x34+x51 <=1 
C1003: x34+x54 <=1 
C1004: x34+x55 <=1 
C1005: x34+x58-y34_58 <=1 
C1006: x34+x59 <=1 
C1007: x34+x62-y34_62 <=1 
C1008: x34+x63-y34_63 <=1 
C1009: x34+x66 <=1 
C1010: x35+x38-y35_38 <=1 
C1011: x35+x39 <=1 
C1012: x35+x41-y35_41 <=1 
C1013: x35+x42 <=1 
C1014: x35+x46-y35_46 <=1 
C1015: x35+x47 <=1 
C1016: x35+x48-y35_48 <=1 
C1017: x35+x51 <=1 
C1018: x35+x52-y35_52 <=1 
C1019: x35+x54-y35_54 <=1 
C1020: x35+x55 <=1 
C1021: x35+x56 <=1 
C1022: x35+x60 <=1 
C1023: x35+x61-y35_61 <=1 
C1024: x35+x62-y35_62 <=1 
C1025: x35+x64 <=1 
C1026: x36+x37-y36_37 <=1 
C1027: x36+x39-y36_39 <=1 
C1028: x36+x40-y36_40 <=1 
C1029: x36+x41-y36_41 <=1 
C1030: x36+x42 <=1 
C1031: x36+x43 <=1 
C1032: x36+x44 <=1 
C1033: x36+x46-y36_46 <=1 
C1034: x36+x47 <=1 
C1035: x36+x48-y36_48 <=1 
C1036: x36+x49 <=1 
C1037: x36+x51 <=1 
C1038: x36+x54-y36_54 <=1 
C1039: x36+x56 <=1 
C1040: x36+x57-y36_57 <=1 
C1041: x36+x60-y36_60 <=1 
C1042: x36+x62 <=1 
C1043: x36+x63 <=1 
C1044: x36+x64 <=1 
C1045: x36+x66 <=1 
C1046: x37+x39 <=1 
C1047: x37+x40 <=1 
C1048: x37+x41 <=1 
C1049: x37+x42-y37_42 <=1 
C1050: x37+x44 <=1 
C1051: x37+x45-y37_45 <=1 
C1052: x37+x46-y37_46 <=1 
C1053: x37+x47-y37_47 <=1 
C1054: x37+x48 <=1 
C1055: x37+x50 <=1 
C1056: x37+x51 <=1 
C1057: x37+x52 <=1 
C1058: x37+x56 <=1 
C1059: x37+x60-y37_60 <=1 
C1060: x37+x62-y37_62 <=1 
C1061: x37+x64 <=1 
C1062: x37+x65 <=1 
C1063: x37+x66-y37_66 <=1 
C1064: x38+x39 <=1 
C1065: x38+x40-y38_40 <=1 
C1066: x38+x42-y38_42 <=1 
C1067: x38+x43 <=1 
C1068: x38+x44 <=1 
C1069: x38+x45 <=1 
C1070: x38+x46-y38_46 <=1 
C1071: x38+x47 <=1 
C1072: x38+x49-y38_49 <=1 
C1073: x38+x50-y38_50 <=1 
C1074: x38+x51 <=1 
C1075: x38+x52 <=1 
C1076: x38+x54 <=1 
C1077: x38+x55 <=1 
C1078: x38+x56 <=1 
C1079: x38+x57-y38_57 <=1 
C1080: x38+x59 <=1 
C1081: x38+x60 <=1 
C1082: x38+x61-y38_61 <=1 
C1083: x38+x62-y38_62 <=1 
C1084: x38+x63-y38_63 <=1 
C1085: x38+x64 <=1 
C1086: x38+x65-y38_65 <=1 
C1087: x38+x66-y38_66 <=1 
C1088: x39+x41 <=1 
C1089: x39+x44-y39_44 <=1 
C1090: x39+x49-y39_49 <=1 
C1091: x39+x50 <=1 
C1092: x39+x51-y39_51 <=1 
C1093: x39+x52-y39_52 <=1 
C1094: x39+x53 <=1 
C1095: x39+x54 <=1 
C1096: x39+x55-y39_55 <=1 
C1097: x39+x58 <=1 
C1098: x39+x59 <=1 
C1099: x39+x62-y39_62 <=1 
C1100: x39+x63-y39_63 <=1 
C1101: x39+x64 <=1 
C1102: x39+x66-y39_66 <=1 
C1103: x40+x44-y40_44 <=1 
C1104: x40+x46-y40_46 <=1 
C1105: x40+x47-y40_47 <=1 
C1106: x40+x48 <=1 
C1107: x40+x49-y40_49 <=1 
C1108: x40+x50 <=1 
C1109: x40+x51-y40_51 <=1 
C1110: x40+x53-y40_53 <=1 
C1111: x40+x54 <=1 
C1112: x40+x55-y40_55 <=1 
C1113: x40+x56-y40_56 <=1 
C1114: x40+x60 <=1 
C1115: x40+x61-y40_61 <=1 
C1116: x40+x62 <=1 
C1117: x40+x63-y40_63 <=1 
C1118: x40+x64 <=1 
C1119: x41+x42-y41_42 <=1 
C1120: x41+x43 <=1 
C1121: x41+x44 <=1 
C1122: x41+x47 <=1 
C1123: x41+x48-y41_48 <=1 
C1124: x41+x49-y41_49 <=1 
C1125: x41+x53-y41_53 <=1 
C1126: x41+x56 <=1 
C1127: x41+x57-y41_57 <=1 
C1128: x41+x58 <=1 
C1129: x41+x59 <=1 
C1130: x41+x60-y41_60 <=1 
C1131: x41+x61 <=1 
C1132: x42+x43 <=1 
C1133: x42+x44-y42_44 <=1 
C1134: x42+x45 <=1 
C1135: x42+x48 <=1 
C1136: x42+x50-y42_50 <=1 
C1137: x42+x51-y42_51 <=1 
C1138: x42+x52 <=1 
C1139: x42+x54 <=1 
C1140: x42+x57-y42_57 <=1 
C1141: x42+x58-y42_58 <=1 
C1142: x42+x59-y42_59 <=1 
C1143: x42+x60 <=1 
C1144: x42+x62-y42_62 <=1 
C1145: x42+x64-y42_64 <=1 
C1146: x42+x65 <=1 
C1147: x43+x44-y43_44 <=1 
C1148: x43+x46-y43_46 <=1 
C1149: x43+x47 <=1 
C1150: x43+x49-y43_49 <=1 
C1151: x43+x50 <=1 
C1152: x43+x52-y43_52 <=1 
C1153: x43+x53-y43_53 <=1 
C1154: x43+x54-y43_54 <=1 
C1155: x43+x55 <=1 
C1156: x43+x56-y43_56 <=1 
C1157: x43+x59 <=1 
C1158: x43+x60-y43_60 <=1 
C1159: x43+x62 <=1 
C1160: x43+x63 <=1 
C1161: x43+x65 <=1 
C1162: x43+x66-y43_66 <=1 
C1163: x44+x47 <=1 
C1164: x44+x48 <=1 
C1165: x44+x49-y44_49 <=1 
C1166: x44+x53 <=1 
C1167: x44+x55 <=1 
C1168: x44+x57-y44_57 <=1 
C1169: x44+x58-y44_58 <=1 
C1170: x44+x59 <=1 
C1171: x44+x61-y44_61 <=1 
C1172: x44+x62 <=1 
C1173: x44+x63-y44_63 <=1 
C1174: x44+x65-y44_65 <=1 
C1175: x44+x66-y44_66 <=1 
C1176: x45+x46 <=1 
C1177: x45+x53 <=1 
C1178: x45+x55-y45_55 <=1 
C1179: x45+x57-y45_57 <=1 
C1180: x45+x62-y45_62 <=1 
C1181: x45+x66-y45_66 <=1 
C1182: x46+x47-y46_47 <=1 
C1183: x46+x49-y46_49 <=1 
C1184: x46+x50-y46_50 <=1 
C1185: x46+x51 <=1 
C1186: x46+x53-y46_53 <=1 
C1187: x46+x55-y46_55 <=1 
C1188: x46+x59 <=1 
C1189: x46+x62-y46_62 <=1 
C1190: x46+x63-y46_63 <=1 
C1191: x46+x64-y46_64 <=1 
C1192: x47+x49-y47_49 <=1 
C1193: x47+x50 <=1 
C1194: x47+x52 <=1 
C1195: x47+x58-y47_58 <=1 
C1196: x47+x59-y47_59 <=1 
C1197: x47+x61-y47_61 <=1 
C1198: x47+x62-y47_62 <=1 
C1199: x47+x63-y47_63 <=1 
C1200: x47+x65 <=1 
C1201: x48+x50-y48_50 <=1 
C1202: x48+x52-y48_52 <=1 
C1203: x48+x53 <=1 
C1204: x48+x54-y48_54 <=1 
C1205: x48+x55-y48_55 <=1 
C1206: x48+x56-y48_56 <=1 
C1207: x48+x57 <=1 
C1208: x48+x62 <=1 
C1209: x48+x63 <=1 
C1210: x48+x65-y48_65 <=1 
C1211: x49+x50 <=1 
C1212: x49+x51-y49_51 <=1 
C1213: x49+x53 <=1 
C1214: x49+x54 <=1 
C1215: x49+x55-y49_55 <=1 
C1216: x49+x56-y49_56 <=1 
C1217: x49+x57 <=1 
C1218: x49+x59-y49_59 <=1 
C1219: x49+x61 <=1 
C1220: x49+x62-y49_62 <=1 
C1221: x49+x63 <=1 
C1222: x49+x64 <=1 
C1223: x49+x65 <=1 
C1224: x50+x52 <=1 
C1225: x50+x53-y50_53 <=1 
C1226: x50+x54-y50_54 <=1 
C1227: x50+x57-y50_57 <=1 
C1228: x50+x60-y50_60 <=1 
C1229: x50+x62 <=1 
C1230: x50+x65 <=1 
C1231: x50+x66-y50_66 <=1 
C1232: x51+x54 <=1 
C1233: x51+x55 <=1 
C1234: x51+x56-y51_56 <=1 
C1235: x51+x57 <=1 
C1236: x51+x58 <=1 
C1237: x51+x59-y51_59 <=1 
C1238: x51+x61 <=1 
C1239: x51+x62 <=1 
C1240: x51+x63 <=1 
C1241: x51+x66 <=1 
C1242: x52+x53-y52_53 <=1 
C1243: x52+x54-y52_54 <=1 
C1244: x52+x57-y52_57 <=1 
C1245: x52+x59 <=1 
C1246: x52+x60-y52_60 <=1 
C1247: x52+x61 <=1 
C1248: x52+x62 <=1 
C1249: x52+x65 <=1 
C1250: x52+x66-y52_66 <=1 
C1251: x53+x56-y53_56 <=1 
C1252: x53+x58 <=1 
C1253: x53+x59-y53_59 <=1 
C1254: x53+x64-y53_64 <=1 
C1255: x53+x65-y53_65 <=1 
C1256: x53+x66-y53_66 <=1 
C1257: x54+x55 <=1 
C1258: x54+x57 <=1 
C1259: x54+x58-y54_58 <=1 
C1260: x54+x59 <=1 
C1261: x54+x60 <=1 
C1262: x54+x66-y54_66 <=1 
C1263: x55+x56-y55_56 <=1 
C1264: x55+x58 <=1 
C1265: x55+x59 <=1 
C1266: x55+x60-y55_60 <=1 
C1267: x55+x61-y55_61 <=1 
C1268: x55+x64-y55_64 <=1 
C1269: x55+x65-y55_65 <=1 
C1270: x56+x58 <=1 
C1271: x56+x59 <=1 
C1272: x56+x60-y56_60 <=1 
C1273: x56+x62-y56_62 <=1 
C1274: x56+x66 <=1 
C1275: x57+x58 <=1 
C1276: x57+x59 <=1 
C1277: x57+x60-y57_60 <=1 
C1278: x57+x61-y57_61 <=1 
C1279: x57+x62 <=1 
C1280: x57+x63-y57_63 <=1 
C1281: x58+x61-y58_61 <=1 
C1282: x58+x62-y58_62 <=1 
C1283: x58+x63 <=1 
C1284: x58+x65 <=1 
C1285: x58+x66 <=1 
C1286: x59+x60 <=1 
C1287: x59+x62 <=1 
C1288: x59+x63-y59_63 <=1 
C1289: x59+x64-y59_64 <=1 
C1290: x59+x65-y59_65 <=1 
C1291: x59+x66 <=1 
C1292: x60+x61-y60_61 <=1 
C1293: x60+x62 <=1 
C1294: x60+x64 <=1 
C1295: x60+x65-y60_65 <=1 
C1296: x61+x62 <=1 
C1297: x61+x63 <=1 
C1298: x61+x64-y61_64 <=1 
C1299: x61+x66 <=1 
C1300: x63+x66 <=1 
C1301: x64+x65 <=1 
C1302: x65+x66 <=1 

binary
x0
x1
x2
x3
x4
x5
x6
x7
x8
x9
x10
x11
x12
x13
x14
x15
x16
x17
x18
x19
x20
x21
x22
x23
x24
x25
x26
x27
x28
x29
x30
x31
x32
x33
x34
x35
x36
x37
x38
x39
x40
x41
x42
x43
x44
x45
x46
x47
x48
x49
x50
x51
x52
x53
x54
x55
x56
x57
x58
x59
x60
x61
x62
x63
x64
x65
x66
