problem_generation/data/GISP/train/er_n=67_m=1302_p=0.60_SET2_setparam=100.00_alpha=0.50_507.sol
objective value:                                 1272
x2                                                  1 	(obj:100)
x4                                                  1 	(obj:100)
x7                                                  1 	(obj:100)
x10                                                 1 	(obj:100)
x27                                                 1 	(obj:100)
x32                                                 1 	(obj:100)
x33                                                 1 	(obj:100)
x34                                                 1 	(obj:100)
x46                                                 1 	(obj:100)
x57                                                 1 	(obj:100)
x60                                                 1 	(obj:100)
x63                                                 1 	(obj:100)
x65                                                 1 	(obj:100)
y10_27                                              1 	(obj:-1)
y10_63                                              1 	(obj:-1)
y32_60                                              1 	(obj:-1)
y57_60                                              1 	(obj:-1)
y2_7                                                1 	(obj:-1)
y4_57                                               1 	(obj:-1)
y46_63                                              1 	(obj:-1)
y57_63                                              1 	(obj:-1)
y33_65                                              1 	(obj:-1)
y33_60                                              1 	(obj:-1)
y2_63                                               1 	(obj:-1)
y7_34                                               1 	(obj:-1)
y10_57                                              1 	(obj:-1)
y2_57                                               1 	(obj:-1)
y2_33                                               1 	(obj:-1)
y32_65                                              1 	(obj:-1)
y27_57                                              1 	(obj:-1)
y4_46                                               1 	(obj:-1)
y27_34                                              1 	(obj:-1)
y7_65                                               1 	(obj:-1)
y7_60                                               1 	(obj:-1)
y4_27                                               1 	(obj:-1)
y34_46                                              1 	(obj:-1)
y27_33                                              1 	(obj:-1)
y7_32                                               1 	(obj:-1)
y2_65                                               1 	(obj:-1)
y34_63                                              1 	(obj:-1)
y60_65                                              1 	(obj:-1)
